SDVRPTW/PR18.sol
Route #1: 116 33 91 5 134 10 118 112 143
Route #2: 81 2 11 20 133 4 78 110
Route #3: 37 38 43 16 31 127 98 25 53 41
Route #4: 49 55 76 120 58 139 93 97 84
Route #5: 56 99 61 136 103 51 15 67 70 80 32 57
Route #6: 59 40 24 22 47 108 115 140 35 83
Route #7: 42 105 36 17 137 129 48 27 45 94 138
Route #8: 121 100 101 65 96 132 102 95 88 34 126
Route #9:
Route #10: 142 75 14 1 8 3 90 107 92
Route #11:
Route #12:
Route #13: 66 111 109 72 125 7 39 144 52 82 21 26 19 113
Route #14: 68 123 141 130 87 6 119 60 13
Route #15: 85 124 106 89 74 12 128 28 44 18 30
Route #16: 131 63 54 46 77 29 117 114 79 71 50 73 122 62 69
Route #17: 104 23 135 9 86 64
Route #18:
Cost: 3144909
